p cnf 81 1521
1 10 19 28 37 46 55 64 73 0
2 11 20 29 38 47 56 65 74 0
3 12 21 30 39 48 57 66 75 0
4 13 22 31 40 49 58 67 76 0
5 14 23 32 41 50 59 68 77 0
6 15 24 33 42 51 60 69 78 0
7 16 25 34 43 52 61 70 79 0
8 17 26 35 44 53 62 71 80 0
9 18 27 36 45 54 63 72 81 0
-1 -20 0
-1 -21 0
-1 -22 0
-1 -23 0
-1 -24 0
-1 -25 0
-1 -26 0
-1 -27 0
-2 -19 0
-2 -21 0
-2 -22 0
-2 -23 0
-2 -24 0
-2 -25 0
-2 -26 0
-2 -27 0
-3 -19 0
-3 -20 0
-3 -22 0
-3 -23 0
-3 -24 0
-3 -25 0
-3 -26 0
-3 -27 0
-4 -19 0
-4 -20 0
-4 -21 0
-4 -23 0
-4 -24 0
-4 -25 0
-4 -26 0
-4 -27 0
-5 -19 0
-5 -20 0
-5 -21 0
-5 -22 0
-5 -24 0
-5 -25 0
-5 -26 0
-5 -27 0
-6 -19 0
-6 -20 0
-6 -21 0
-6 -22 0
-6 -23 0
-6 -25 0
-6 -26 0
-6 -27 0
-7 -19 0
-7 -20 0
-7 -21 0
-7 -22 0
-7 -23 0
-7 -24 0
-7 -26 0
-7 -27 0
-8 -19 0
-8 -20 0
-8 -21 0
-8 -22 0
-8 -23 0
-8 -24 0
-8 -25 0
-8 -27 0
-9 -19 0
-9 -20 0
-9 -21 0
-9 -22 0
-9 -23 0
-9 -24 0
-9 -25 0
-9 -26 0
-1 -29 0
-1 -30 0
-1 -31 0
-1 -32 0
-1 -33 0
-1 -34 0
-1 -35 0
-1 -36 0
-2 -28 0
-2 -30 0
-2 -31 0
-2 -32 0
-2 -33 0
-2 -34 0
-2 -35 0
-2 -36 0
-3 -28 0
-3 -29 0
-3 -31 0
-3 -32 0
-3 -33 0
-3 -34 0
-3 -35 0
-3 -36 0
-4 -28 0
-4 -29 0
-4 -30 0
-4 -32 0
-4 -33 0
-4 -34 0
-4 -35 0
-4 -36 0
-5 -28 0
-5 -29 0
-5 -30 0
-5 -31 0
-5 -33 0
-5 -34 0
-5 -35 0
-5 -36 0
-6 -28 0
-6 -29 0
-6 -30 0
-6 -31 0
-6 -32 0
-6 -34 0
-6 -35 0
-6 -36 0
-7 -28 0
-7 -29 0
-7 -30 0
-7 -31 0
-7 -32 0
-7 -33 0
-7 -35 0
-7 -36 0
-8 -28 0
-8 -29 0
-8 -30 0
-8 -31 0
-8 -32 0
-8 -33 0
-8 -34 0
-8 -36 0
-9 -28 0
-9 -29 0
-9 -30 0
-9 -31 0
-9 -32 0
-9 -33 0
-9 -34 0
-9 -35 0
-1 -38 0
-1 -39 0
-1 -40 0
-1 -41 0
-1 -42 0
-1 -43 0
-1 -44 0
-1 -45 0
-2 -37 0
-2 -39 0
-2 -40 0
-2 -41 0
-2 -42 0
-2 -43 0
-2 -44 0
-2 -45 0
-3 -37 0
-3 -38 0
-3 -40 0
-3 -41 0
-3 -42 0
-3 -43 0
-3 -44 0
-3 -45 0
-4 -37 0
-4 -38 0
-4 -39 0
-4 -41 0
-4 -42 0
-4 -43 0
-4 -44 0
-4 -45 0
-5 -37 0
-5 -38 0
-5 -39 0
-5 -40 0
-5 -42 0
-5 -43 0
-5 -44 0
-5 -45 0
-6 -37 0
-6 -38 0
-6 -39 0
-6 -40 0
-6 -41 0
-6 -43 0
-6 -44 0
-6 -45 0
-7 -37 0
-7 -38 0
-7 -39 0
-7 -40 0
-7 -41 0
-7 -42 0
-7 -44 0
-7 -45 0
-8 -37 0
-8 -38 0
-8 -39 0
-8 -40 0
-8 -41 0
-8 -42 0
-8 -43 0
-8 -45 0
-9 -37 0
-9 -38 0
-9 -39 0
-9 -40 0
-9 -41 0
-9 -42 0
-9 -43 0
-9 -44 0
-1 -47 0
-1 -48 0
-1 -49 0
-1 -50 0
-1 -51 0
-1 -52 0
-1 -53 0
-1 -54 0
-2 -46 0
-2 -48 0
-2 -49 0
-2 -50 0
-2 -51 0
-2 -52 0
-2 -53 0
-2 -54 0
-3 -46 0
-3 -47 0
-3 -49 0
-3 -50 0
-3 -51 0
-3 -52 0
-3 -53 0
-3 -54 0
-4 -46 0
-4 -47 0
-4 -48 0
-4 -50 0
-4 -51 0
-4 -52 0
-4 -53 0
-4 -54 0
-5 -46 0
-5 -47 0
-5 -48 0
-5 -49 0
-5 -51 0
-5 -52 0
-5 -53 0
-5 -54 0
-6 -46 0
-6 -47 0
-6 -48 0
-6 -49 0
-6 -50 0
-6 -52 0
-6 -53 0
-6 -54 0
-7 -46 0
-7 -47 0
-7 -48 0
-7 -49 0
-7 -50 0
-7 -51 0
-7 -53 0
-7 -54 0
-8 -46 0
-8 -47 0
-8 -48 0
-8 -49 0
-8 -50 0
-8 -51 0
-8 -52 0
-8 -54 0
-9 -46 0
-9 -47 0
-9 -48 0
-9 -49 0
-9 -50 0
-9 -51 0
-9 -52 0
-9 -53 0
-1 -65 0
-1 -66 0
-1 -67 0
-1 -68 0
-1 -69 0
-1 -70 0
-1 -71 0
-1 -72 0
-2 -64 0
-2 -66 0
-2 -67 0
-2 -68 0
-2 -69 0
-2 -70 0
-2 -71 0
-2 -72 0
-3 -64 0
-3 -65 0
-3 -67 0
-3 -68 0
-3 -69 0
-3 -70 0
-3 -71 0
-3 -72 0
-4 -64 0
-4 -65 0
-4 -66 0
-4 -68 0
-4 -69 0
-4 -70 0
-4 -71 0
-4 -72 0
-5 -64 0
-5 -65 0
-5 -66 0
-5 -67 0
-5 -69 0
-5 -70 0
-5 -71 0
-5 -72 0
-6 -64 0
-6 -65 0
-6 -66 0
-6 -67 0
-6 -68 0
-6 -70 0
-6 -71 0
-6 -72 0
-7 -64 0
-7 -65 0
-7 -66 0
-7 -67 0
-7 -68 0
-7 -69 0
-7 -71 0
-7 -72 0
-8 -64 0
-8 -65 0
-8 -66 0
-8 -67 0
-8 -68 0
-8 -69 0
-8 -70 0
-8 -72 0
-9 -64 0
-9 -65 0
-9 -66 0
-9 -67 0
-9 -68 0
-9 -69 0
-9 -70 0
-9 -71 0
-1 -74 0
-1 -75 0
-1 -76 0
-1 -77 0
-1 -78 0
-1 -79 0
-1 -80 0
-1 -81 0
-2 -73 0
-2 -75 0
-2 -76 0
-2 -77 0
-2 -78 0
-2 -79 0
-2 -80 0
-2 -81 0
-3 -73 0
-3 -74 0
-3 -76 0
-3 -77 0
-3 -78 0
-3 -79 0
-3 -80 0
-3 -81 0
-4 -73 0
-4 -74 0
-4 -75 0
-4 -77 0
-4 -78 0
-4 -79 0
-4 -80 0
-4 -81 0
-5 -73 0
-5 -74 0
-5 -75 0
-5 -76 0
-5 -78 0
-5 -79 0
-5 -80 0
-5 -81 0
-6 -73 0
-6 -74 0
-6 -75 0
-6 -76 0
-6 -77 0
-6 -79 0
-6 -80 0
-6 -81 0
-7 -73 0
-7 -74 0
-7 -75 0
-7 -76 0
-7 -77 0
-7 -78 0
-7 -80 0
-7 -81 0
-8 -73 0
-8 -74 0
-8 -75 0
-8 -76 0
-8 -77 0
-8 -78 0
-8 -79 0
-8 -81 0
-9 -73 0
-9 -74 0
-9 -75 0
-9 -76 0
-9 -77 0
-9 -78 0
-9 -79 0
-9 -80 0
-10 -20 0
-10 -21 0
-10 -22 0
-10 -23 0
-10 -24 0
-10 -25 0
-10 -26 0
-10 -27 0
-11 -19 0
-11 -21 0
-11 -22 0
-11 -23 0
-11 -24 0
-11 -25 0
-11 -26 0
-11 -27 0
-12 -19 0
-12 -20 0
-12 -22 0
-12 -23 0
-12 -24 0
-12 -25 0
-12 -26 0
-12 -27 0
-13 -19 0
-13 -20 0
-13 -21 0
-13 -23 0
-13 -24 0
-13 -25 0
-13 -26 0
-13 -27 0
-14 -19 0
-14 -20 0
-14 -21 0
-14 -22 0
-14 -24 0
-14 -25 0
-14 -26 0
-14 -27 0
-15 -19 0
-15 -20 0
-15 -21 0
-15 -22 0
-15 -23 0
-15 -25 0
-15 -26 0
-15 -27 0
-16 -19 0
-16 -20 0
-16 -21 0
-16 -22 0
-16 -23 0
-16 -24 0
-16 -26 0
-16 -27 0
-17 -19 0
-17 -20 0
-17 -21 0
-17 -22 0
-17 -23 0
-17 -24 0
-17 -25 0
-17 -27 0
-18 -19 0
-18 -20 0
-18 -21 0
-18 -22 0
-18 -23 0
-18 -24 0
-18 -25 0
-18 -26 0
-10 -29 0
-10 -30 0
-10 -31 0
-10 -32 0
-10 -33 0
-10 -34 0
-10 -35 0
-10 -36 0
-11 -28 0
-11 -30 0
-11 -31 0
-11 -32 0
-11 -33 0
-11 -34 0
-11 -35 0
-11 -36 0
-12 -28 0
-12 -29 0
-12 -31 0
-12 -32 0
-12 -33 0
-12 -34 0
-12 -35 0
-12 -36 0
-13 -28 0
-13 -29 0
-13 -30 0
-13 -32 0
-13 -33 0
-13 -34 0
-13 -35 0
-13 -36 0
-14 -28 0
-14 -29 0
-14 -30 0
-14 -31 0
-14 -33 0
-14 -34 0
-14 -35 0
-14 -36 0
-15 -28 0
-15 -29 0
-15 -30 0
-15 -31 0
-15 -32 0
-15 -34 0
-15 -35 0
-15 -36 0
-16 -28 0
-16 -29 0
-16 -30 0
-16 -31 0
-16 -32 0
-16 -33 0
-16 -35 0
-16 -36 0
-17 -28 0
-17 -29 0
-17 -30 0
-17 -31 0
-17 -32 0
-17 -33 0
-17 -34 0
-17 -36 0
-18 -28 0
-18 -29 0
-18 -30 0
-18 -31 0
-18 -32 0
-18 -33 0
-18 -34 0
-18 -35 0
-10 -38 0
-10 -39 0
-10 -40 0
-10 -41 0
-10 -42 0
-10 -43 0
-10 -44 0
-10 -45 0
-11 -37 0
-11 -39 0
-11 -40 0
-11 -41 0
-11 -42 0
-11 -43 0
-11 -44 0
-11 -45 0
-12 -37 0
-12 -38 0
-12 -40 0
-12 -41 0
-12 -42 0
-12 -43 0
-12 -44 0
-12 -45 0
-13 -37 0
-13 -38 0
-13 -39 0
-13 -41 0
-13 -42 0
-13 -43 0
-13 -44 0
-13 -45 0
-14 -37 0
-14 -38 0
-14 -39 0
-14 -40 0
-14 -42 0
-14 -43 0
-14 -44 0
-14 -45 0
-15 -37 0
-15 -38 0
-15 -39 0
-15 -40 0
-15 -41 0
-15 -43 0
-15 -44 0
-15 -45 0
-16 -37 0
-16 -38 0
-16 -39 0
-16 -40 0
-16 -41 0
-16 -42 0
-16 -44 0
-16 -45 0
-17 -37 0
-17 -38 0
-17 -39 0
-17 -40 0
-17 -41 0
-17 -42 0
-17 -43 0
-17 -45 0
-18 -37 0
-18 -38 0
-18 -39 0
-18 -40 0
-18 -41 0
-18 -42 0
-18 -43 0
-18 -44 0
-10 -56 0
-10 -57 0
-10 -58 0
-10 -59 0
-10 -60 0
-10 -61 0
-10 -62 0
-10 -63 0
-11 -55 0
-11 -57 0
-11 -58 0
-11 -59 0
-11 -60 0
-11 -61 0
-11 -62 0
-11 -63 0
-12 -55 0
-12 -56 0
-12 -58 0
-12 -59 0
-12 -60 0
-12 -61 0
-12 -62 0
-12 -63 0
-13 -55 0
-13 -56 0
-13 -57 0
-13 -59 0
-13 -60 0
-13 -61 0
-13 -62 0
-13 -63 0
-14 -55 0
-14 -56 0
-14 -57 0
-14 -58 0
-14 -60 0
-14 -61 0
-14 -62 0
-14 -63 0
-15 -55 0
-15 -56 0
-15 -57 0
-15 -58 0
-15 -59 0
-15 -61 0
-15 -62 0
-15 -63 0
-16 -55 0
-16 -56 0
-16 -57 0
-16 -58 0
-16 -59 0
-16 -60 0
-16 -62 0
-16 -63 0
-17 -55 0
-17 -56 0
-17 -57 0
-17 -58 0
-17 -59 0
-17 -60 0
-17 -61 0
-17 -63 0
-18 -55 0
-18 -56 0
-18 -57 0
-18 -58 0
-18 -59 0
-18 -60 0
-18 -61 0
-18 -62 0
-10 -65 0
-10 -66 0
-10 -67 0
-10 -68 0
-10 -69 0
-10 -70 0
-10 -71 0
-10 -72 0
-11 -64 0
-11 -66 0
-11 -67 0
-11 -68 0
-11 -69 0
-11 -70 0
-11 -71 0
-11 -72 0
-12 -64 0
-12 -65 0
-12 -67 0
-12 -68 0
-12 -69 0
-12 -70 0
-12 -71 0
-12 -72 0
-13 -64 0
-13 -65 0
-13 -66 0
-13 -68 0
-13 -69 0
-13 -70 0
-13 -71 0
-13 -72 0
-14 -64 0
-14 -65 0
-14 -66 0
-14 -67 0
-14 -69 0
-14 -70 0
-14 -71 0
-14 -72 0
-15 -64 0
-15 -65 0
-15 -66 0
-15 -67 0
-15 -68 0
-15 -70 0
-15 -71 0
-15 -72 0
-16 -64 0
-16 -65 0
-16 -66 0
-16 -67 0
-16 -68 0
-16 -69 0
-16 -71 0
-16 -72 0
-17 -64 0
-17 -65 0
-17 -66 0
-17 -67 0
-17 -68 0
-17 -69 0
-17 -70 0
-17 -72 0
-18 -64 0
-18 -65 0
-18 -66 0
-18 -67 0
-18 -68 0
-18 -69 0
-18 -70 0
-18 -71 0
-10 -74 0
-10 -75 0
-10 -76 0
-10 -77 0
-10 -78 0
-10 -79 0
-10 -80 0
-10 -81 0
-11 -73 0
-11 -75 0
-11 -76 0
-11 -77 0
-11 -78 0
-11 -79 0
-11 -80 0
-11 -81 0
-12 -73 0
-12 -74 0
-12 -76 0
-12 -77 0
-12 -78 0
-12 -79 0
-12 -80 0
-12 -81 0
-13 -73 0
-13 -74 0
-13 -75 0
-13 -77 0
-13 -78 0
-13 -79 0
-13 -80 0
-13 -81 0
-14 -73 0
-14 -74 0
-14 -75 0
-14 -76 0
-14 -78 0
-14 -79 0
-14 -80 0
-14 -81 0
-15 -73 0
-15 -74 0
-15 -75 0
-15 -76 0
-15 -77 0
-15 -79 0
-15 -80 0
-15 -81 0
-16 -73 0
-16 -74 0
-16 -75 0
-16 -76 0
-16 -77 0
-16 -78 0
-16 -80 0
-16 -81 0
-17 -73 0
-17 -74 0
-17 -75 0
-17 -76 0
-17 -77 0
-17 -78 0
-17 -79 0
-17 -81 0
-18 -73 0
-18 -74 0
-18 -75 0
-18 -76 0
-18 -77 0
-18 -78 0
-18 -79 0
-18 -80 0
-19 -38 0
-19 -39 0
-19 -40 0
-19 -41 0
-19 -42 0
-19 -43 0
-19 -44 0
-19 -45 0
-20 -37 0
-20 -39 0
-20 -40 0
-20 -41 0
-20 -42 0
-20 -43 0
-20 -44 0
-20 -45 0
-21 -37 0
-21 -38 0
-21 -40 0
-21 -41 0
-21 -42 0
-21 -43 0
-21 -44 0
-21 -45 0
-22 -37 0
-22 -38 0
-22 -39 0
-22 -41 0
-22 -42 0
-22 -43 0
-22 -44 0
-22 -45 0
-23 -37 0
-23 -38 0
-23 -39 0
-23 -40 0
-23 -42 0
-23 -43 0
-23 -44 0
-23 -45 0
-24 -37 0
-24 -38 0
-24 -39 0
-24 -40 0
-24 -41 0
-24 -43 0
-24 -44 0
-24 -45 0
-25 -37 0
-25 -38 0
-25 -39 0
-25 -40 0
-25 -41 0
-25 -42 0
-25 -44 0
-25 -45 0
-26 -37 0
-26 -38 0
-26 -39 0
-26 -40 0
-26 -41 0
-26 -42 0
-26 -43 0
-26 -45 0
-27 -37 0
-27 -38 0
-27 -39 0
-27 -40 0
-27 -41 0
-27 -42 0
-27 -43 0
-27 -44 0
-19 -47 0
-19 -48 0
-19 -49 0
-19 -50 0
-19 -51 0
-19 -52 0
-19 -53 0
-19 -54 0
-20 -46 0
-20 -48 0
-20 -49 0
-20 -50 0
-20 -51 0
-20 -52 0
-20 -53 0
-20 -54 0
-21 -46 0
-21 -47 0
-21 -49 0
-21 -50 0
-21 -51 0
-21 -52 0
-21 -53 0
-21 -54 0
-22 -46 0
-22 -47 0
-22 -48 0
-22 -50 0
-22 -51 0
-22 -52 0
-22 -53 0
-22 -54 0
-23 -46 0
-23 -47 0
-23 -48 0
-23 -49 0
-23 -51 0
-23 -52 0
-23 -53 0
-23 -54 0
-24 -46 0
-24 -47 0
-24 -48 0
-24 -49 0
-24 -50 0
-24 -52 0
-24 -53 0
-24 -54 0
-25 -46 0
-25 -47 0
-25 -48 0
-25 -49 0
-25 -50 0
-25 -51 0
-25 -53 0
-25 -54 0
-26 -46 0
-26 -47 0
-26 -48 0
-26 -49 0
-26 -50 0
-26 -51 0
-26 -52 0
-26 -54 0
-27 -46 0
-27 -47 0
-27 -48 0
-27 -49 0
-27 -50 0
-27 -51 0
-27 -52 0
-27 -53 0
-19 -56 0
-19 -57 0
-19 -58 0
-19 -59 0
-19 -60 0
-19 -61 0
-19 -62 0
-19 -63 0
-20 -55 0
-20 -57 0
-20 -58 0
-20 -59 0
-20 -60 0
-20 -61 0
-20 -62 0
-20 -63 0
-21 -55 0
-21 -56 0
-21 -58 0
-21 -59 0
-21 -60 0
-21 -61 0
-21 -62 0
-21 -63 0
-22 -55 0
-22 -56 0
-22 -57 0
-22 -59 0
-22 -60 0
-22 -61 0
-22 -62 0
-22 -63 0
-23 -55 0
-23 -56 0
-23 -57 0
-23 -58 0
-23 -60 0
-23 -61 0
-23 -62 0
-23 -63 0
-24 -55 0
-24 -56 0
-24 -57 0
-24 -58 0
-24 -59 0
-24 -61 0
-24 -62 0
-24 -63 0
-25 -55 0
-25 -56 0
-25 -57 0
-25 -58 0
-25 -59 0
-25 -60 0
-25 -62 0
-25 -63 0
-26 -55 0
-26 -56 0
-26 -57 0
-26 -58 0
-26 -59 0
-26 -60 0
-26 -61 0
-26 -63 0
-27 -55 0
-27 -56 0
-27 -57 0
-27 -58 0
-27 -59 0
-27 -60 0
-27 -61 0
-27 -62 0
-19 -65 0
-19 -66 0
-19 -67 0
-19 -68 0
-19 -69 0
-19 -70 0
-19 -71 0
-19 -72 0
-20 -64 0
-20 -66 0
-20 -67 0
-20 -68 0
-20 -69 0
-20 -70 0
-20 -71 0
-20 -72 0
-21 -64 0
-21 -65 0
-21 -67 0
-21 -68 0
-21 -69 0
-21 -70 0
-21 -71 0
-21 -72 0
-22 -64 0
-22 -65 0
-22 -66 0
-22 -68 0
-22 -69 0
-22 -70 0
-22 -71 0
-22 -72 0
-23 -64 0
-23 -65 0
-23 -66 0
-23 -67 0
-23 -69 0
-23 -70 0
-23 -71 0
-23 -72 0
-24 -64 0
-24 -65 0
-24 -66 0
-24 -67 0
-24 -68 0
-24 -70 0
-24 -71 0
-24 -72 0
-25 -64 0
-25 -65 0
-25 -66 0
-25 -67 0
-25 -68 0
-25 -69 0
-25 -71 0
-25 -72 0
-26 -64 0
-26 -65 0
-26 -66 0
-26 -67 0
-26 -68 0
-26 -69 0
-26 -70 0
-26 -72 0
-27 -64 0
-27 -65 0
-27 -66 0
-27 -67 0
-27 -68 0
-27 -69 0
-27 -70 0
-27 -71 0
-19 -74 0
-19 -75 0
-19 -76 0
-19 -77 0
-19 -78 0
-19 -79 0
-19 -80 0
-19 -81 0
-20 -73 0
-20 -75 0
-20 -76 0
-20 -77 0
-20 -78 0
-20 -79 0
-20 -80 0
-20 -81 0
-21 -73 0
-21 -74 0
-21 -76 0
-21 -77 0
-21 -78 0
-21 -79 0
-21 -80 0
-21 -81 0
-22 -73 0
-22 -74 0
-22 -75 0
-22 -77 0
-22 -78 0
-22 -79 0
-22 -80 0
-22 -81 0
-23 -73 0
-23 -74 0
-23 -75 0
-23 -76 0
-23 -78 0
-23 -79 0
-23 -80 0
-23 -81 0
-24 -73 0
-24 -74 0
-24 -75 0
-24 -76 0
-24 -77 0
-24 -79 0
-24 -80 0
-24 -81 0
-25 -73 0
-25 -74 0
-25 -75 0
-25 -76 0
-25 -77 0
-25 -78 0
-25 -80 0
-25 -81 0
-26 -73 0
-26 -74 0
-26 -75 0
-26 -76 0
-26 -77 0
-26 -78 0
-26 -79 0
-26 -81 0
-27 -73 0
-27 -74 0
-27 -75 0
-27 -76 0
-27 -77 0
-27 -78 0
-27 -79 0
-27 -80 0
-28 -38 0
-28 -39 0
-28 -40 0
-28 -41 0
-28 -42 0
-28 -43 0
-28 -44 0
-28 -45 0
-29 -37 0
-29 -39 0
-29 -40 0
-29 -41 0
-29 -42 0
-29 -43 0
-29 -44 0
-29 -45 0
-30 -37 0
-30 -38 0
-30 -40 0
-30 -41 0
-30 -42 0
-30 -43 0
-30 -44 0
-30 -45 0
-31 -37 0
-31 -38 0
-31 -39 0
-31 -41 0
-31 -42 0
-31 -43 0
-31 -44 0
-31 -45 0
-32 -37 0
-32 -38 0
-32 -39 0
-32 -40 0
-32 -42 0
-32 -43 0
-32 -44 0
-32 -45 0
-33 -37 0
-33 -38 0
-33 -39 0
-33 -40 0
-33 -41 0
-33 -43 0
-33 -44 0
-33 -45 0
-34 -37 0
-34 -38 0
-34 -39 0
-34 -40 0
-34 -41 0
-34 -42 0
-34 -44 0
-34 -45 0
-35 -37 0
-35 -38 0
-35 -39 0
-35 -40 0
-35 -41 0
-35 -42 0
-35 -43 0
-35 -45 0
-36 -37 0
-36 -38 0
-36 -39 0
-36 -40 0
-36 -41 0
-36 -42 0
-36 -43 0
-36 -44 0
-37 -56 0
-37 -57 0
-37 -58 0
-37 -59 0
-37 -60 0
-37 -61 0
-37 -62 0
-37 -63 0
-38 -55 0
-38 -57 0
-38 -58 0
-38 -59 0
-38 -60 0
-38 -61 0
-38 -62 0
-38 -63 0
-39 -55 0
-39 -56 0
-39 -58 0
-39 -59 0
-39 -60 0
-39 -61 0
-39 -62 0
-39 -63 0
-40 -55 0
-40 -56 0
-40 -57 0
-40 -59 0
-40 -60 0
-40 -61 0
-40 -62 0
-40 -63 0
-41 -55 0
-41 -56 0
-41 -57 0
-41 -58 0
-41 -60 0
-41 -61 0
-41 -62 0
-41 -63 0
-42 -55 0
-42 -56 0
-42 -57 0
-42 -58 0
-42 -59 0
-42 -61 0
-42 -62 0
-42 -63 0
-43 -55 0
-43 -56 0
-43 -57 0
-43 -58 0
-43 -59 0
-43 -60 0
-43 -62 0
-43 -63 0
-44 -55 0
-44 -56 0
-44 -57 0
-44 -58 0
-44 -59 0
-44 -60 0
-44 -61 0
-44 -63 0
-45 -55 0
-45 -56 0
-45 -57 0
-45 -58 0
-45 -59 0
-45 -60 0
-45 -61 0
-45 -62 0
-37 -65 0
-37 -66 0
-37 -67 0
-37 -68 0
-37 -69 0
-37 -70 0
-37 -71 0
-37 -72 0
-38 -64 0
-38 -66 0
-38 -67 0
-38 -68 0
-38 -69 0
-38 -70 0
-38 -71 0
-38 -72 0
-39 -64 0
-39 -65 0
-39 -67 0
-39 -68 0
-39 -69 0
-39 -70 0
-39 -71 0
-39 -72 0
-40 -64 0
-40 -65 0
-40 -66 0
-40 -68 0
-40 -69 0
-40 -70 0
-40 -71 0
-40 -72 0
-41 -64 0
-41 -65 0
-41 -66 0
-41 -67 0
-41 -69 0
-41 -70 0
-41 -71 0
-41 -72 0
-42 -64 0
-42 -65 0
-42 -66 0
-42 -67 0
-42 -68 0
-42 -70 0
-42 -71 0
-42 -72 0
-43 -64 0
-43 -65 0
-43 -66 0
-43 -67 0
-43 -68 0
-43 -69 0
-43 -71 0
-43 -72 0
-44 -64 0
-44 -65 0
-44 -66 0
-44 -67 0
-44 -68 0
-44 -69 0
-44 -70 0
-44 -72 0
-45 -64 0
-45 -65 0
-45 -66 0
-45 -67 0
-45 -68 0
-45 -69 0
-45 -70 0
-45 -71 0
-46 -56 0
-46 -57 0
-46 -58 0
-46 -59 0
-46 -60 0
-46 -61 0
-46 -62 0
-46 -63 0
-47 -55 0
-47 -57 0
-47 -58 0
-47 -59 0
-47 -60 0
-47 -61 0
-47 -62 0
-47 -63 0
-48 -55 0
-48 -56 0
-48 -58 0
-48 -59 0
-48 -60 0
-48 -61 0
-48 -62 0
-48 -63 0
-49 -55 0
-49 -56 0
-49 -57 0
-49 -59 0
-49 -60 0
-49 -61 0
-49 -62 0
-49 -63 0
-50 -55 0
-50 -56 0
-50 -57 0
-50 -58 0
-50 -60 0
-50 -61 0
-50 -62 0
-50 -63 0
-51 -55 0
-51 -56 0
-51 -57 0
-51 -58 0
-51 -59 0
-51 -61 0
-51 -62 0
-51 -63 0
-52 -55 0
-52 -56 0
-52 -57 0
-52 -58 0
-52 -59 0
-52 -60 0
-52 -62 0
-52 -63 0
-53 -55 0
-53 -56 0
-53 -57 0
-53 -58 0
-53 -59 0
-53 -60 0
-53 -61 0
-53 -63 0
-54 -55 0
-54 -56 0
-54 -57 0
-54 -58 0
-54 -59 0
-54 -60 0
-54 -61 0
-54 -62 0
-55 -65 0
-55 -66 0
-55 -67 0
-55 -68 0
-55 -69 0
-55 -70 0
-55 -71 0
-55 -72 0
-56 -64 0
-56 -66 0
-56 -67 0
-56 -68 0
-56 -69 0
-56 -70 0
-56 -71 0
-56 -72 0
-57 -64 0
-57 -65 0
-57 -67 0
-57 -68 0
-57 -69 0
-57 -70 0
-57 -71 0
-57 -72 0
-58 -64 0
-58 -65 0
-58 -66 0
-58 -68 0
-58 -69 0
-58 -70 0
-58 -71 0
-58 -72 0
-59 -64 0
-59 -65 0
-59 -66 0
-59 -67 0
-59 -69 0
-59 -70 0
-59 -71 0
-59 -72 0
-60 -64 0
-60 -65 0
-60 -66 0
-60 -67 0
-60 -68 0
-60 -70 0
-60 -71 0
-60 -72 0
-61 -64 0
-61 -65 0
-61 -66 0
-61 -67 0
-61 -68 0
-61 -69 0
-61 -71 0
-61 -72 0
-62 -64 0
-62 -65 0
-62 -66 0
-62 -67 0
-62 -68 0
-62 -69 0
-62 -70 0
-62 -72 0
-63 -64 0
-63 -65 0
-63 -66 0
-63 -67 0
-63 -68 0
-63 -69 0
-63 -70 0
-63 -71 0
-55 -74 0
-55 -75 0
-55 -76 0
-55 -77 0
-55 -78 0
-55 -79 0
-55 -80 0
-55 -81 0
-56 -73 0
-56 -75 0
-56 -76 0
-56 -77 0
-56 -78 0
-56 -79 0
-56 -80 0
-56 -81 0
-57 -73 0
-57 -74 0
-57 -76 0
-57 -77 0
-57 -78 0
-57 -79 0
-57 -80 0
-57 -81 0
-58 -73 0
-58 -74 0
-58 -75 0
-58 -77 0
-58 -78 0
-58 -79 0
-58 -80 0
-58 -81 0
-59 -73 0
-59 -74 0
-59 -75 0
-59 -76 0
-59 -78 0
-59 -79 0
-59 -80 0
-59 -81 0
-60 -73 0
-60 -74 0
-60 -75 0
-60 -76 0
-60 -77 0
-60 -79 0
-60 -80 0
-60 -81 0
-61 -73 0
-61 -74 0
-61 -75 0
-61 -76 0
-61 -77 0
-61 -78 0
-61 -80 0
-61 -81 0
-62 -73 0
-62 -74 0
-62 -75 0
-62 -76 0
-62 -77 0
-62 -78 0
-62 -79 0
-62 -81 0
-63 -73 0
-63 -74 0
-63 -75 0
-63 -76 0
-63 -77 0
-63 -78 0
-63 -79 0
-63 -80 0
-64 -74 0
-64 -75 0
-64 -76 0
-64 -77 0
-64 -78 0
-64 -79 0
-64 -80 0
-64 -81 0
-65 -73 0
-65 -75 0
-65 -76 0
-65 -77 0
-65 -78 0
-65 -79 0
-65 -80 0
-65 -81 0
-66 -73 0
-66 -74 0
-66 -76 0
-66 -77 0
-66 -78 0
-66 -79 0
-66 -80 0
-66 -81 0
-67 -73 0
-67 -74 0
-67 -75 0
-67 -77 0
-67 -78 0
-67 -79 0
-67 -80 0
-67 -81 0
-68 -73 0
-68 -74 0
-68 -75 0
-68 -76 0
-68 -78 0
-68 -79 0
-68 -80 0
-68 -81 0
-69 -73 0
-69 -74 0
-69 -75 0
-69 -76 0
-69 -77 0
-69 -79 0
-69 -80 0
-69 -81 0
-70 -73 0
-70 -74 0
-70 -75 0
-70 -76 0
-70 -77 0
-70 -78 0
-70 -80 0
-70 -81 0
-71 -73 0
-71 -74 0
-71 -75 0
-71 -76 0
-71 -77 0
-71 -78 0
-71 -79 0
-71 -81 0
-72 -73 0
-72 -74 0
-72 -75 0
-72 -76 0
-72 -77 0
-72 -78 0
-72 -79 0
-72 -80 0
-1 -2 0
-1 -3 0
-1 -4 0
-1 -5 0
-1 -6 0
-1 -7 0
-1 -8 0
-1 -9 0
-2 -3 0
-2 -4 0
-2 -5 0
-2 -6 0
-2 -7 0
-2 -8 0
-2 -9 0
-3 -4 0
-3 -5 0
-3 -6 0
-3 -7 0
-3 -8 0
-3 -9 0
-4 -5 0
-4 -6 0
-4 -7 0
-4 -8 0
-4 -9 0
-5 -6 0
-5 -7 0
-5 -8 0
-5 -9 0
-6 -7 0
-6 -8 0
-6 -9 0
-7 -8 0
-7 -9 0
-8 -9 0
-10 -11 0
-10 -12 0
-10 -13 0
-10 -14 0
-10 -15 0
-10 -16 0
-10 -17 0
-10 -18 0
-11 -12 0
-11 -13 0
-11 -14 0
-11 -15 0
-11 -16 0
-11 -17 0
-11 -18 0
-12 -13 0
-12 -14 0
-12 -15 0
-12 -16 0
-12 -17 0
-12 -18 0
-13 -14 0
-13 -15 0
-13 -16 0
-13 -17 0
-13 -18 0
-14 -15 0
-14 -16 0
-14 -17 0
-14 -18 0
-15 -16 0
-15 -17 0
-15 -18 0
-16 -17 0
-16 -18 0
-17 -18 0
-19 -20 0
-19 -21 0
-19 -22 0
-19 -23 0
-19 -24 0
-19 -25 0
-19 -26 0
-19 -27 0
-20 -21 0
-20 -22 0
-20 -23 0
-20 -24 0
-20 -25 0
-20 -26 0
-20 -27 0
-21 -22 0
-21 -23 0
-21 -24 0
-21 -25 0
-21 -26 0
-21 -27 0
-22 -23 0
-22 -24 0
-22 -25 0
-22 -26 0
-22 -27 0
-23 -24 0
-23 -25 0
-23 -26 0
-23 -27 0
-24 -25 0
-24 -26 0
-24 -27 0
-25 -26 0
-25 -27 0
-26 -27 0
-28 -29 0
-28 -30 0
-28 -31 0
-28 -32 0
-28 -33 0
-28 -34 0
-28 -35 0
-28 -36 0
-29 -30 0
-29 -31 0
-29 -32 0
-29 -33 0
-29 -34 0
-29 -35 0
-29 -36 0
-30 -31 0
-30 -32 0
-30 -33 0
-30 -34 0
-30 -35 0
-30 -36 0
-31 -32 0
-31 -33 0
-31 -34 0
-31 -35 0
-31 -36 0
-32 -33 0
-32 -34 0
-32 -35 0
-32 -36 0
-33 -34 0
-33 -35 0
-33 -36 0
-34 -35 0
-34 -36 0
-35 -36 0
-37 -38 0
-37 -39 0
-37 -40 0
-37 -41 0
-37 -42 0
-37 -43 0
-37 -44 0
-37 -45 0
-38 -39 0
-38 -40 0
-38 -41 0
-38 -42 0
-38 -43 0
-38 -44 0
-38 -45 0
-39 -40 0
-39 -41 0
-39 -42 0
-39 -43 0
-39 -44 0
-39 -45 0
-40 -41 0
-40 -42 0
-40 -43 0
-40 -44 0
-40 -45 0
-41 -42 0
-41 -43 0
-41 -44 0
-41 -45 0
-42 -43 0
-42 -44 0
-42 -45 0
-43 -44 0
-43 -45 0
-44 -45 0
-46 -47 0
-46 -48 0
-46 -49 0
-46 -50 0
-46 -51 0
-46 -52 0
-46 -53 0
-46 -54 0
-47 -48 0
-47 -49 0
-47 -50 0
-47 -51 0
-47 -52 0
-47 -53 0
-47 -54 0
-48 -49 0
-48 -50 0
-48 -51 0
-48 -52 0
-48 -53 0
-48 -54 0
-49 -50 0
-49 -51 0
-49 -52 0
-49 -53 0
-49 -54 0
-50 -51 0
-50 -52 0
-50 -53 0
-50 -54 0
-51 -52 0
-51 -53 0
-51 -54 0
-52 -53 0
-52 -54 0
-53 -54 0
-55 -56 0
-55 -57 0
-55 -58 0
-55 -59 0
-55 -60 0
-55 -61 0
-55 -62 0
-55 -63 0
-56 -57 0
-56 -58 0
-56 -59 0
-56 -60 0
-56 -61 0
-56 -62 0
-56 -63 0
-57 -58 0
-57 -59 0
-57 -60 0
-57 -61 0
-57 -62 0
-57 -63 0
-58 -59 0
-58 -60 0
-58 -61 0
-58 -62 0
-58 -63 0
-59 -60 0
-59 -61 0
-59 -62 0
-59 -63 0
-60 -61 0
-60 -62 0
-60 -63 0
-61 -62 0
-61 -63 0
-62 -63 0
-64 -65 0
-64 -66 0
-64 -67 0
-64 -68 0
-64 -69 0
-64 -70 0
-64 -71 0
-64 -72 0
-65 -66 0
-65 -67 0
-65 -68 0
-65 -69 0
-65 -70 0
-65 -71 0
-65 -72 0
-66 -67 0
-66 -68 0
-66 -69 0
-66 -70 0
-66 -71 0
-66 -72 0
-67 -68 0
-67 -69 0
-67 -70 0
-67 -71 0
-67 -72 0
-68 -69 0
-68 -70 0
-68 -71 0
-68 -72 0
-69 -70 0
-69 -71 0
-69 -72 0
-70 -71 0
-70 -72 0
-71 -72 0
-73 -74 0
-73 -75 0
-73 -76 0
-73 -77 0
-73 -78 0
-73 -79 0
-73 -80 0
-73 -81 0
-74 -75 0
-74 -76 0
-74 -77 0
-74 -78 0
-74 -79 0
-74 -80 0
-74 -81 0
-75 -76 0
-75 -77 0
-75 -78 0
-75 -79 0
-75 -80 0
-75 -81 0
-76 -77 0
-76 -78 0
-76 -79 0
-76 -80 0
-76 -81 0
-77 -78 0
-77 -79 0
-77 -80 0
-77 -81 0
-78 -79 0
-78 -80 0
-78 -81 0
-79 -80 0
-79 -81 0
-80 -81 0
-1 -10  0
-1 -19  0
-1 -28  0
-1 -37  0
-1 -46  0
-1 -55  0
-1 -64  0
-1 -73  0
-2 -11  0
-2 -20  0
-2 -29  0
-2 -38  0
-2 -47  0
-2 -56  0
-2 -65  0
-2 -74  0
-3 -12  0
-3 -21  0
-3 -30  0
-3 -39  0
-3 -48  0
-3 -57  0
-3 -66  0
-3 -75  0
-4 -13  0
-4 -22  0
-4 -31  0
-4 -40  0
-4 -49  0
-4 -58  0
-4 -67  0
-4 -76  0
-5 -14  0
-5 -23  0
-5 -32  0
-5 -41  0
-5 -50  0
-5 -59  0
-5 -68  0
-5 -77  0
-6 -15  0
-6 -24  0
-6 -33  0
-6 -42  0
-6 -51  0
-6 -60  0
-6 -69  0
-6 -78  0
-7 -16  0
-7 -25  0
-7 -34  0
-7 -43  0
-7 -52  0
-7 -61  0
-7 -70  0
-7 -79  0
-8 -17  0
-8 -26  0
-8 -35  0
-8 -44  0
-8 -53  0
-8 -62  0
-8 -71  0
-8 -80  0
-9 -18  0
-9 -27  0
-9 -36  0
-9 -45  0
-9 -54  0
-9 -63  0
-9 -72  0
-9 -81  0
-10 -19  0
-10 -28  0
-10 -37  0
-10 -46  0
-10 -55  0
-10 -64  0
-10 -73  0
-11 -20  0
-11 -29  0
-11 -38  0
-11 -47  0
-11 -56  0
-11 -65  0
-11 -74  0
-12 -21  0
-12 -30  0
-12 -39  0
-12 -48  0
-12 -57  0
-12 -66  0
-12 -75  0
-13 -22  0
-13 -31  0
-13 -40  0
-13 -49  0
-13 -58  0
-13 -67  0
-13 -76  0
-14 -23  0
-14 -32  0
-14 -41  0
-14 -50  0
-14 -59  0
-14 -68  0
-14 -77  0
-15 -24  0
-15 -33  0
-15 -42  0
-15 -51  0
-15 -60  0
-15 -69  0
-15 -78  0
-16 -25  0
-16 -34  0
-16 -43  0
-16 -52  0
-16 -61  0
-16 -70  0
-16 -79  0
-17 -26  0
-17 -35  0
-17 -44  0
-17 -53  0
-17 -62  0
-17 -71  0
-17 -80  0
-18 -27  0
-18 -36  0
-18 -45  0
-18 -54  0
-18 -63  0
-18 -72  0
-18 -81  0
-19 -28  0
-19 -37  0
-19 -46  0
-19 -55  0
-19 -64  0
-19 -73  0
-20 -29  0
-20 -38  0
-20 -47  0
-20 -56  0
-20 -65  0
-20 -74  0
-21 -30  0
-21 -39  0
-21 -48  0
-21 -57  0
-21 -66  0
-21 -75  0
-22 -31  0
-22 -40  0
-22 -49  0
-22 -58  0
-22 -67  0
-22 -76  0
-23 -32  0
-23 -41  0
-23 -50  0
-23 -59  0
-23 -68  0
-23 -77  0
-24 -33  0
-24 -42  0
-24 -51  0
-24 -60  0
-24 -69  0
-24 -78  0
-25 -34  0
-25 -43  0
-25 -52  0
-25 -61  0
-25 -70  0
-25 -79  0
-26 -35  0
-26 -44  0
-26 -53  0
-26 -62  0
-26 -71  0
-26 -80  0
-27 -36  0
-27 -45  0
-27 -54  0
-27 -63  0
-27 -72  0
-27 -81  0
-28 -37  0
-28 -46  0
-28 -55  0
-28 -64  0
-28 -73  0
-29 -38  0
-29 -47  0
-29 -56  0
-29 -65  0
-29 -74  0
-30 -39  0
-30 -48  0
-30 -57  0
-30 -66  0
-30 -75  0
-31 -40  0
-31 -49  0
-31 -58  0
-31 -67  0
-31 -76  0
-32 -41  0
-32 -50  0
-32 -59  0
-32 -68  0
-32 -77  0
-33 -42  0
-33 -51  0
-33 -60  0
-33 -69  0
-33 -78  0
-34 -43  0
-34 -52  0
-34 -61  0
-34 -70  0
-34 -79  0
-35 -44  0
-35 -53  0
-35 -62  0
-35 -71  0
-35 -80  0
-36 -45  0
-36 -54  0
-36 -63  0
-36 -72  0
-36 -81  0
-37 -46  0
-37 -55  0
-37 -64  0
-37 -73  0
-38 -47  0
-38 -56  0
-38 -65  0
-38 -74  0
-39 -48  0
-39 -57  0
-39 -66  0
-39 -75  0
-40 -49  0
-40 -58  0
-40 -67  0
-40 -76  0
-41 -50  0
-41 -59  0
-41 -68  0
-41 -77  0
-42 -51  0
-42 -60  0
-42 -69  0
-42 -78  0
-43 -52  0
-43 -61  0
-43 -70  0
-43 -79  0
-44 -53  0
-44 -62  0
-44 -71  0
-44 -80  0
-45 -54  0
-45 -63  0
-45 -72  0
-45 -81  0
-46 -55  0
-46 -64  0
-46 -73  0
-47 -56  0
-47 -65  0
-47 -74  0
-48 -57  0
-48 -66  0
-48 -75  0
-49 -58  0
-49 -67  0
-49 -76  0
-50 -59  0
-50 -68  0
-50 -77  0
-51 -60  0
-51 -69  0
-51 -78  0
-52 -61  0
-52 -70  0
-52 -79  0
-53 -62  0
-53 -71  0
-53 -80  0
-54 -63  0
-54 -72  0
-54 -81  0
-55 -64  0
-55 -73  0
-56 -65  0
-56 -74  0
-57 -66  0
-57 -75  0
-58 -67  0
-58 -76  0
-59 -68  0
-59 -77  0
-60 -69  0
-60 -78  0
-61 -70  0
-61 -79  0
-62 -71  0
-62 -80  0
-63 -72  0
-63 -81  0
-64 -73  0
-65 -74  0
-66 -75  0
-67 -76  0
-68 -77  0
-69 -78  0
-70 -79  0
-71 -80  0
-72 -81  0
